mixintcount/benchmarks/random_v2l/4_4_17.in
16 6
#	x1	x2	x3	x4;		0 = Real; 1 = Integer
	1	1	1	1
1	-9	-9	9	5	7
1	-4	-4	-2	3	-16
1	9	-6	9	-10	-2
1	4	2	3	3	14
1	10	4	-8	-8	-10
1	-6	-7	9	10	-3
1	10	9	3	8	-12
1	-5	-8	7	3	17
1	1	0	0	0	17
1	-1	0	0	0	17
1	0	1	0	0	17
1	0	-1	0	0	17
1	0	0	1	0	17
1	0	0	-1	0	17
1	0	0	0	1	17
1	0	0	0	-1	17
